0 2407.4 2452.9 2063.5 2456.7 2316.2 2048.8 2139.2 2273.4 2478.8 2482.4 2078.8 2485.3 2478.6 2242.7 2400.1 2070.9 2210.9 2457.9 2396.1 2479.7 2327.9 2017.9 2424.6 2467 2339.4 2378.9 2371.6 2196.1 2327.7 2085.6 2353 2015.9 2138.5 2023.1 2048.6 2411.7 2347.4 2158.5 2475.1 2017.2 2219.4 2190.8 2382.8 2397.6 2093.4 2244.9 2222.8 2323.2 2354.7 2377.3 2138 2339.9 2327.5 2081.3 2059.5 2249.2 0